GLPSOL--GLPK LP/MIP Solver 5.0
Parameter(s) specified in the command line:
 -m ../GLPK/GraphColoringGLPK.mod -d queen5_5.col.dat -o ../sol/queen5_5.col.dat.sol
Reading model section from ../GLPK/GraphColoringGLPK.mod...
../GLPK/GraphColoringGLPK.mod:28: warning: unexpected end of file; missing end statement inserted
28 lines were read
Reading data section from queen5_5.col.dat...
queen5_5.col.dat:51: duplicate tuple (2,1) detected
Context:  2 ) ( 2 , 17 ) ( 17 , 2 ) ( 2 , 22 ) ( 22 , 2 ) ( 2 , 1 ) (
MathProg model processing error
GLPSOL--GLPK LP/MIP Solver 5.0
Parameter(s) specified in the command line:
 -m ../GLPK/GraphColoringGLPK.mod -d queen5_5.col.dat -o ../sol/queen5_5.col.dat.sol
Reading model section from ../GLPK/GraphColoringGLPK.mod...
../GLPK/GraphColoringGLPK.mod:28: warning: unexpected end of file; missing end statement inserted
28 lines were read
Reading data section from queen5_5.col.dat...
325 lines were read
Generating colors_count...
Generating R1...
Generating R2...
Generating R3...
Model has been successfully generated
GLPK Integer Optimizer 5.0
8050 rows, 650 columns, 25850 non-zeros
650 integer variables, all of which are binary
Preprocessing...
8049 rows, 650 columns, 25825 non-zeros
650 integer variables, all of which are binary
Scaling...
 A: min|aij| =  1.000e+00  max|aij| =  1.000e+00  ratio =  1.000e+00
Problem data seem to be well scaled
Constructing initial basis...
Size of triangular part is 8049
Solving LP relaxation...
GLPK Simplex Optimizer 5.0
8049 rows, 650 columns, 25825 non-zeros
      0: obj =   0.000000000e+00 inf =   6.650e+02 (321)
    646: obj =   2.333333333e+00 inf =   3.978e-13 (0) 5
*   833: obj =   2.000000000e+00 inf =   1.065e-13 (0) 2
OPTIMAL LP SOLUTION FOUND
Integer optimization begins...
Long-step dual simplex will be used
+   833: mip =     not found yet >=              -inf        (1; 0)
+  8452: mip =     not found yet >=   3.000000000e+00        (36; 12)
+ 15562: mip =     not found yet >=   3.000000000e+00        (94; 26)
+ 23575: mip =     not found yet >=   3.000000000e+00        (128; 42)
+ 29053: >>>>>   8.000000000e+00 >=   3.000000000e+00  62.5% (168; 51)
+ 36262: mip =   8.000000000e+00 >=   3.000000000e+00  62.5% (188; 98)
+ 40854: >>>>>   6.000000000e+00 >=   3.000000000e+00  50.0% (215; 106)
+ 47141: mip =   6.000000000e+00 >=   3.000000000e+00  50.0% (221; 200)
+ 55801: mip =   6.000000000e+00 >=   3.000000000e+00  50.0% (251; 217)
+ 63387: mip =   6.000000000e+00 >=   3.000000000e+00  50.0% (285; 235)
+ 72019: mip =   6.000000000e+00 >=   3.000000000e+00  50.0% (308; 255)
+ 80706: mip =   6.000000000e+00 >=   3.000000000e+00  50.0% (327; 278)
+ 87860: mip =   6.000000000e+00 >=   3.000000000e+00  50.0% (361; 299)
Time used: 60.1 secs.  Memory used: 19.9 Mb.
+ 94066: mip =   6.000000000e+00 >=   3.000000000e+00  50.0% (410; 313)
+101831: mip =   6.000000000e+00 >=   3.000000000e+00  50.0% (437; 328)
+110523: mip =   6.000000000e+00 >=   3.000000000e+00  50.0% (469; 344)
+118788: mip =   6.000000000e+00 >=   3.000000000e+00  50.0% (498; 363)
+125171: mip =   6.000000000e+00 >=   3.000000000e+00  50.0% (535; 380)
+131660: mip =   6.000000000e+00 >=   3.000000000e+00  50.0% (573; 396)
+137874: mip =   6.000000000e+00 >=   3.000000000e+00  50.0% (623; 406)
+145788: mip =   6.000000000e+00 >=   3.000000000e+00  50.0% (649; 427)
+152733: mip =   6.000000000e+00 >=   3.000000000e+00  50.0% (690; 443)
+158629: mip =   6.000000000e+00 >=   3.000000000e+00  50.0% (734; 456)
+164251: mip =   6.000000000e+00 >=   3.000000000e+00  50.0% (794; 470)
+172931: mip =   6.000000000e+00 >=   3.000000000e+00  50.0% (815; 490)
Time used: 120.2 secs.  Memory used: 29.1 Mb.
+181259: mip =   6.000000000e+00 >=   3.000000000e+00  50.0% (834; 513)
+188887: mip =   6.000000000e+00 >=   3.000000000e+00  50.0% (856; 532)
+197697: mip =   6.000000000e+00 >=   3.000000000e+00  50.0% (875; 550)
+204954: mip =   6.000000000e+00 >=   3.000000000e+00  50.0% (910; 567)
+211112: mip =   6.000000000e+00 >=   3.000000000e+00  50.0% (950; 582)
+217841: mip =   6.000000000e+00 >=   3.000000000e+00  50.0% (986; 600)
+224338: mip =   6.000000000e+00 >=   3.000000000e+00  50.0% (1023; 618)
+233157: mip =   6.000000000e+00 >=   3.000000000e+00  50.0% (1044; 635)
+240941: mip =   6.000000000e+00 >=   3.000000000e+00  50.0% (1071; 653)
+250048: mip =   6.000000000e+00 >=   3.000000000e+00  50.0% (1099; 674)
+256012: mip =   6.000000000e+00 >=   3.000000000e+00  50.0% (1149; 690)
+264379: mip =   6.000000000e+00 >=   3.000000000e+00  50.0% (1175; 707)
Time used: 180.2 secs.  Memory used: 37.4 Mb.
+271512: mip =   6.000000000e+00 >=   3.000000000e+00  50.0% (1208; 722)
+281108: mip =   6.000000000e+00 >=   3.000000000e+00  50.0% (1230; 743)
+288446: mip =   6.000000000e+00 >=   3.000000000e+00  50.0% (1265; 760)
+296506: mip =   6.000000000e+00 >=   3.000000000e+00  50.0% (1293; 775)
+303052: mip =   6.000000000e+00 >=   3.000000000e+00  50.0% (1329; 788)
+311645: mip =   6.000000000e+00 >=   3.000000000e+00  50.0% (1357; 809)
+319274: mip =   6.000000000e+00 >=   3.000000000e+00  50.0% (1392; 828)
+327019: mip =   6.000000000e+00 >=   3.000000000e+00  50.0% (1421; 842)
+334148: mip =   6.000000000e+00 >=   3.000000000e+00  50.0% (1456; 862)
+341451: mip =   6.000000000e+00 >=   3.000000000e+00  50.0% (1484; 880)
+348380: mip =   6.000000000e+00 >=   3.000000000e+00  50.0% (1519; 894)
+356183: mip =   6.000000000e+00 >=   3.000000000e+00  50.0% (1541; 912)
Time used: 240.3 secs.  Memory used: 46.6 Mb.
+363758: mip =   6.000000000e+00 >=   3.000000000e+00  50.0% (1563; 930)
+372747: mip =   6.000000000e+00 >=   3.000000000e+00  50.0% (1577; 945)
+380199: mip =   6.000000000e+00 >=   3.000000000e+00  50.0% (1607; 963)
+388728: mip =   6.000000000e+00 >=   4.000000000e+00  33.3% (1617; 1002)
+395900: mip =   6.000000000e+00 >=   4.000000000e+00  33.3% (1657; 1022)
+398522: >>>>>   5.000000000e+00 >=   4.000000000e+00  20.0% (1678; 1028)
+407695: mip =   5.000000000e+00 >=   4.000000000e+00  20.0% (421; 3818)
+417611: mip =   5.000000000e+00 >=   4.000000000e+00  20.0% (418; 3898)
+427034: mip =   5.000000000e+00 >=   4.000000000e+00  20.0% (411; 3992)
+437417: mip =   5.000000000e+00 >=   4.000000000e+00  20.0% (405; 4083)
+447225: mip =   5.000000000e+00 >=   4.000000000e+00  20.0% (399; 4178)
+457907: mip =   5.000000000e+00 >=   4.000000000e+00  20.0% (382; 4291)
Time used: 300.4 secs.  Memory used: 50.0 Mb.
+466682: mip =   5.000000000e+00 >=   4.000000000e+00  20.0% (382; 4369)
+476126: mip =   5.000000000e+00 >=   4.000000000e+00  20.0% (362; 4504)
+488106: mip =   5.000000000e+00 >=   4.000000000e+00  20.0% (343; 4664)
+499936: mip =   5.000000000e+00 >=   4.000000000e+00  20.0% (327; 4743)
+511047: mip =   5.000000000e+00 >=   4.000000000e+00  20.0% (311; 4833)
+520755: mip =   5.000000000e+00 >=   4.000000000e+00  20.0% (309; 4922)
+531134: mip =   5.000000000e+00 >=   4.000000000e+00  20.0% (309; 5001)
+541392: mip =   5.000000000e+00 >=   4.000000000e+00  20.0% (307; 5088)
+551688: mip =   5.000000000e+00 >=   4.000000000e+00  20.0% (302; 5161)
+562705: mip =   5.000000000e+00 >=   4.000000000e+00  20.0% (291; 5233)
+574186: mip =   5.000000000e+00 >=   4.000000000e+00  20.0% (271; 5341)
+586689: mip =   5.000000000e+00 >=   4.000000000e+00  20.0% (230; 5564)
Time used: 360.4 secs.  Memory used: 50.0 Mb.
+598053: mip =   5.000000000e+00 >=   4.000000000e+00  20.0% (212; 5681)
+606642: mip =   5.000000000e+00 >=   4.000000000e+00  20.0% (233; 5734)
+618305: mip =   5.000000000e+00 >=   4.000000000e+00  20.0% (215; 5841)
+631835: mip =   5.000000000e+00 >=   4.000000000e+00  20.0% (172; 6027)
+642939: mip =   5.000000000e+00 >=   4.000000000e+00  20.0% (159; 6174)
+652382: mip =   5.000000000e+00 >=   4.000000000e+00  20.0% (153; 6275)
+662577: mip =   5.000000000e+00 >=   4.000000000e+00  20.0% (140; 6364)
+675057: mip =   5.000000000e+00 >=   4.000000000e+00  20.0% (121; 6461)
+686045: mip =   5.000000000e+00 >=   4.000000000e+00  20.0% (113; 6549)
+697778: mip =   5.000000000e+00 >=   4.000000000e+00  20.0% (94; 6678)
+710669: mip =   5.000000000e+00 >=   4.000000000e+00  20.0% (62; 6838)
+723389: mip =   5.000000000e+00 >=   4.000000000e+00  20.0% (24; 7015)
Time used: 420.4 secs.  Memory used: 50.0 Mb.
+734245: mip =   5.000000000e+00 >=   4.000000000e+00  20.0% (3; 7170)
+734957: mip =   5.000000000e+00 >=     tree is empty   0.0% (0; 7209)
INTEGER OPTIMAL SOLUTION FOUND
Time used:   423.4 secs
Memory used: 52.0 Mb (54520592 bytes)
Writing MIP solution to '../sol/queen5_5.col.dat.sol'...
Unable to create '../sol/queen5_5.col.dat.sol' - No such file or directory
Unable to write problem solution
